(set-logic QF_FPBV)
(set-option :produce-models true)
(set-info :source |Random FP created by PyMPF|)
(set-info :category random)
(set-info :status sat)
;; fp.from.sbv(BitVec 64)
(declare-const x (_ BitVec 64))
(assert (bvsle x #b0011001110000011000000000000111001110110111101101011000001010010))
;; x should be 3711810580008841298
(declare-const r Float32)
(assert (= r ((_ to_fp 8 24) RNE x)))
(assert (fp.leq r (fp #b0 #b10111100 #b10011100000110000000000)))
(check-sat)
(exit)
